Route #1: 1 27 39 12 67 66 39 1 
Route #2: 1 33 19 56 26 10 33 1 
Route #3: 1 2 44 43 42 57 24 50 4 1 
Route #4: 1 16 58 14 20 55 20 9 47 1 
Route #5: 1 7 34 2 23 63 29 3 69 1 
Route #6: 1 76 31 49 48 6 30 16 28 16 1 
Route #7: 1 68 8 36 20 15 54 20 53 35 1 
Route #8: 1 4 17 64 2 74 1 
Route #9: 1 13 41 33 51 45 4 52 1 
Route #10: 1 48 72 71 21 38 16 46 5 1 
Route #11: 1 59 11 32 11 73 40 33 18 1 
Route #12: 1 75 29 62 22 48 37 70 48 1 
Cost 1062.0
